38695
39632
40600
41671
42791
43848
44890
46007
47328
48477
49532
50271
50953
51404
51816
52213
52610
52947
53171
53466
53663
53903
54190
54437
54668
54954
55247
55500
55751
55985
56238
56450
56609
56783
56993
57253
57471
57714
57817
57952
58109
58308
58449
58623
58706
58826
58997
59217
59361
59525
59615
59789
59901
59999
60114
60232
60316
60488
60615
60703
60948
61139
61349
61561
61697
61908
62090
62205
62388
62580
62728
62823
62968
63086
63222
63375
63523
63628
63754
63880
64021
64181
64288
64410
64520
64664
64835
64950
65095
65293
65444
65631
65771
65897
66046
66179
66300
66387
66499
66615
